
# LAMMPS input for doped TiO2 methane adsorption

units metal
atom_style atomic
boundary p p p

read_data doped_adsorption.lammps

# Masses
mass 1 12.0  # C
mass 2 1.0   # H
mass 3 16.0  # O
mass 4 48.0  # Ti
mass 5 58.93 # Co

pair_style lj/cut 10.0
pair_coeff * * 0.1 3.0

minimize 1e-4 1e-6 1000 1000

timestep 0.001
fix 1 all nvt temp 100 100 0.1
run 1000

compute pe all pe
thermo_style custom step temp pe
thermo 100
