# LAMMPS input for isolated methane

units metal
atom_style atomic
boundary p p p

read_data methane_isolated.lammps

mass 1 12.0  # C
mass 2 1.0   # H

pair_style lj/cut 10.0
pair_coeff * * 0.1 3.0

minimize 1e-4 1e-6 1000 1000

compute pe all pe
thermo_style custom pe
thermo 1
